NAME: tsp10_20
COMMENT: 10-tsp problem (Padberg/Rinaldi)
TYPE: TSP
DIMENSION: 10
EDGE_WEIGHT_TYPE : EUC_2D
NODE_COORD_SECTION
1.00 29.23 3.92
2.00 9.48 29.00
3.00 35.45 30.24
4.00 12.38 12.08
5.00 13.28 16.56
6.00 27.15 20.60
7.00 1.05 20.89
8.00 21.77 9.21
9.00 23.44 31.47
10.00 39.84 2.98
